60 1000
1 485
2 256 3 5 7 9 14 15 17 20 23 26 27 29 39 40 41 49 53 54 55 57 59
3 259 5 7 9 14 15 17 20 23 26 27 29 38 39 40 41 49 53 54 55 56 57 59
4 491 5 7 9 15 17 23 40
5 251 7 8 9 13 14 15 17 20 23 24 26 27 29 34 35 38 39 40 41 45 47 49 53 54 55 56 57 59
6 258
7 353 8 9 13 14 15 17 20 23 24 26 27 29 34 35 38 39 40 41 45 47 49 53 54 55 56 57 59
8 312 9 17 23 40
9 335 13 14 15 17 20 23 24 26 27 29 34 35 38 39 40 41 45 47 49 53 54 55 56 57 59
10 498
11 250
12 252
13 361 23 40
14 293 15 17 20 23 26 27 29 39 40 41 49 53 54 55 57 59
15 346 17 20 23 26 27 29 34 38 39 40 41 47 49 53 54 55 56 57 59
16 378
17 252 20 23 24 26 27 29 34 38 39 40 41 47 49 53 54 55 56 57 59
18 370
19 451
20 256 23 26 27 29 39 40 41 49 53 54 55 57 59
21 293
22 439
23 269 24 26 27 29 34 35 38 39 40 41 45 47 49 53 54 55 56 57 59
24 292 40
25 453
26 263 27 29 39 40 41 49 53 54 55 57 59
27 284 29 39 40 41 49 53 54 55 57 59
28 398
29 259 39 40 41 49 53 54 55 57 59
30 343
31 391
32 255
33 354
34 462 40
35 252 40
36 286
37 363
38 254 39 40 49 53 57 59
39 383 40 41 49 53 54 55 56 57 59
40 381 41 45 47 49 53 54 55 56 57 59
41 278 49 53 54 55 57 59
42 341
43 454
44 251
45 295
46 356
47 283 53
48 361
49 453 53 54 55 57 59
50 272
51 275
52 357
53 275 54 55 56 57 59
54 368 55 57 59
55 468 57 59
56 250 57
57 282 59
58 352
59 280
60 368
